============================[ Problem Statistics ]=============================|                                                                             ||  Number of variables:          4242                                         ||  Number of clauses:           10348                                         ||  Parse time:                   0.73 s                                       ||                                                                             |============================[ Search Statistics ]==============================| Conflicts |          ORIGINAL         |          LEARNT          | Progress ||           |    Vars  Clauses Literals |    Limit  Clauses Lit/Cl |          |===============================================================================|       100 |    1591     6553  1173224 |     2402      100     53 | 62.501 % ||       250 |    1591     6553  1173224 |     2643      250     75 | 62.495 % |===============================================================================restarts              : 3conflicts             : 398            (358 /sec)decisions             : 662            (0.00 % random) (596 /sec)propagations          : 12053          (10849 /sec)conflict literals     : 32994          (94.55 % deleted)CPU time              : 1.111 sSATISFIABLE